90 116594
82 33 43 20 16 41 76 70 50 86 53 32 13 19 7 66 15 69 75 27 39 55 52 3 80 37 65 49 88 56 35 62 14 63 28 44 51 9 45 48 42 1 6 57 83 84 85 12 46 22 24 29 38 77 90 68 47 36 23 30 8 73 58 72 54 89 4 26 59 31 67 2 21 17 78 81 61 60 71 34 5 25 64 79 74 40 87 10 11 18 
